************************************************************************
file with basedata            : md341_.bas
initial value random generator: 343044162
************************************************************************
projects                      :  1
jobs (incl. supersource/sink ):  22
horizon                       :  174
RESOURCES
  - renewable                 :  2   R
  - nonrenewable              :  2   N
  - doubly constrained        :  0   D
************************************************************************
PROJECT INFORMATION:
pronr.  #jobs rel.date duedate tardcost  MPM-Time
    1     20      0       24       11       24
************************************************************************
PRECEDENCE RELATIONS:
jobnr.    #modes  #successors   successors
   1        1          3           2   3   4
   2        3          3          10  11  17
   3        3          3           5   6  14
   4        3          1          14
   5        3          2           7  12
   6        3          1           9
   7        3          3           8  11  19
   8        3          2          13  18
   9        3          2          12  13
  10        3          3          12  15  19
  11        3          2          16  18
  12        3          1          21
  13        3          2          15  16
  14        3          3          15  16  21
  15        3          1          20
  16        3          1          20
  17        3          2          18  19
  18        3          2          20  21
  19        3          1          22
  20        3          1          22
  21        3          1          22
  22        1          0        
************************************************************************
REQUESTS/DURATIONS:
jobnr. mode duration  R 1  R 2  N 1  N 2
------------------------------------------------------------------------
  1      1     0       0    0    0    0
  2      1     3       4    8    4    0
         2     3       4    5    0    4
         3    10       4    1    0    4
  3      1     1       8    6    6    0
         2     7       7    6    4    0
         3     9       5    5    3    0
  4      1     1       3    6    0    6
         2     9       3    5    5    0
         3    10       2    5    0    4
  5      1     3       9    4    0    8
         2     4       8    4    0    4
         3     6       8    1    7    0
  6      1     7       6    9    9    0
         2     9       5    8    0    7
         3    10       5    7    0    6
  7      1     5       1    9    0    8
         2     8       1    5    0    8
         3     9       1    3    2    0
  8      1     3       9    6    0    5
         2     4       5    6    9    0
         3     9       3    6    3    0
  9      1     1      10    7    0   10
         2     3      10    6    0    7
         3     4       9    5    0    7
 10      1     2       3    8    0    9
         2     5       3    7    0    6
         3     6       2    7    0    6
 11      1     1       5    7    0    2
         2     6       3    4    6    0
         3     9       1    2    4    0
 12      1     1      10    6    0    8
         2     6      10    3    0    8
         3    10      10    2    0    7
 13      1     4       4    2    0    5
         2     7       4    2    8    0
         3    10       4    1    0    2
 14      1     1       7    9    7    0
         2     6       7    9    6    0
         3    10       5    8    4    0
 15      1     7       9   10   10    0
         2    10       8    7    4    0
         3    10       8    8    0   10
 16      1     6       4    6    0    5
         2    10       4    4    2    0
         3    10       4    5    1    0
 17      1     8       6    5    0    6
         2     9       4    3    8    0
         3    10       3    2    0    5
 18      1     3       9    6    8    0
         2     7       7    6    8    0
         3    10       6    6    7    0
 19      1     3       7    9    8    0
         2     8       6    7    5    0
         3     9       4    6    5    0
 20      1     1       2    5    4    0
         2     3       2    5    0    5
         3     4       2    4    0    2
 21      1     3       4   10    9    0
         2     8       3    9    9    0
         3     9       1    8    8    0
 22      1     0       0    0    0    0
************************************************************************
RESOURCEAVAILABILITIES:
  R 1  R 2  N 1  N 2
   15   14   91   79
************************************************************************
MAXIMAL LAGS:
from  to  type  delay
    1   22   ES      0
    1    2   ES      0
    2   22   ES      0
    1    3   ES      0
    3   22   ES      0
    1    4   ES      0
    4   22   ES      0
    1    5   ES      0
    5   22   ES      0
    1    6   ES      0
    6   22   ES      0
    1    7   ES      0
    7   22   ES      0
    1    8   ES      0
    8   22   ES      0
    1    9   ES      0
    9   22   ES      0
    1   10   ES      0
   10   22   ES      0
    1   11   ES      0
   11   22   ES      0
    1   12   ES      0
   12   22   ES      0
    1   13   ES      0
   13   22   ES      0
    1   14   ES      0
   14   22   ES      0
    1   15   ES      0
   15   22   ES      0
    1   16   ES      0
   16   22   ES      0
    1   17   ES      0
   17   22   ES      0
    1   18   ES      0
   18   22   ES      0
    1   19   ES      0
   19   22   ES      0
    1   20   ES      0
   20   22   ES      0
    1   21   ES      0
   21   22   ES      0
    1   22   ES      0
    2   10   SS     -6
    2   10   SE     -7
    2   10   ES      2
    2   10   EE    -12
    2   11   SS     -7
    2   11   SE     -9
    2   11   ES      1
    2   11   EE     -4
    2   17   SS     12
    2   17   SE      5
    2   17   ES     10
    2   17   EE      3
    3    5   SS     11
    3    5   SE     -9
    3    5   ES     -8
    3    5   EE    -11
    3    6   SS      1
    3    6   SE    -12
    3    6   ES     10
    3    6   EE     -7
    3   14   SS    -10
    3   14   SE     -8
    3   14   ES      4
    3   14   EE      4
    4   14   SS      0
    4   14   SE      1
    4   14   ES     -1
    4   14   EE     -8
    5    7   SS      0
    5    7   SE     10
    5    7   ES      5
    5    7   EE     -5
    5   12   SS     10
    5   12   SE     -3
    5   12   ES     -9
    5   12   EE     -2
    6    9   SS     -2
    6    9   SE      6
    6    9   ES      7
    6    9   EE      7
    7    8   SS     -9
    7    8   SE     11
    7    8   ES    -11
    7    8   EE    -10
    7   11   SS     11
    7   11   SE     -1
    7   11   ES      2
    7   11   EE      1
    7   19   SS      8
    7   19   SE      2
    7   19   ES     11
    7   19   EE      1
    8   13   SS     -3
    8   13   SE     12
    8   13   ES      3
    8   13   EE     10
    8   18   SS     -8
    8   18   SE     11
    8   18   ES     -7
    8   18   EE     11
    9   12   SS     12
    9   12   SE      6
    9   12   ES      4
    9   12   EE    -10
    9   13   SS     -8
    9   13   SE    -12
    9   13   ES      6
    9   13   EE      6
   10   12   SS     -1
   10   12   SE      9
   10   12   ES      8
   10   12   EE      2
   10   15   SS      0
   10   15   SE     -2
   10   15   ES      2
   10   15   EE     -7
   10   19   SS      4
   10   19   SE     11
   10   19   ES      6
   10   19   EE     -4
   11   16   SS     12
   11   16   SE     -9
   11   16   ES     -5
   11   16   EE     -3
   11   18   SS      3
   11   18   SE     -2
   11   18   ES    -11
   11   18   EE      6
   12   21   SS      4
   12   21   SE      4
   12   21   ES      6
   12   21   EE      4
   13   15   SS      1
   13   15   SE     -3
   13   15   ES     -2
   13   15   EE      0
   13   16   SS     -2
   13   16   SE     12
   13   16   ES     -7
   13   16   EE     -8
   14   15   SS    -11
   14   15   SE     11
   14   15   ES     11
   14   15   EE     -6
   14   16   SS      1
   14   16   SE      4
   14   16   ES     -4
   14   16   EE      6
   14   21   SS      7
   14   21   SE     -2
   14   21   ES     -9
   14   21   EE     -1
   15   20   SS     -3
   15   20   SE     -7
   15   20   ES     -9
   15   20   EE     -3
   16   20   SS     -4
   16   20   SE      3
   16   20   ES      2
   16   20   EE     -5
   17   18   SS     -7
   17   18   SE     -3
   17   18   ES     -4
   17   18   EE      7
   17   19   SS     12
   17   19   SE     -9
   17   19   ES     -5
   17   19   EE      9
   18   20   SS     -4
   18   20   SE     -8
   18   20   ES     -9
   18   20   EE     -6
   18   21   SS      5
   18   21   SE      4
   18   21   ES     12
   18   21   EE     -7
************************************************************************
